W=6;
H=3;

MAX_TIME=13;
MAX_TRACKS=12;

TARGET=(2,6);

TRAINS=[(2,2,LEFT),(2,3,RIGHT)];
DECOYS=[];

INIT_POS=[
(2,2,STRAIGHT_RL),
(2,3,STRAIGHT_RL),
(2,6,STRAIGHT_RL),
];
TUNNEL_PAIRS=[];

GATES=[];
ACTIVATIONS=[];

DSWITCHES=[];

STATIONS=[];
